(set-info :origin "NTS benchmark converted to SMT-LIB2 using Eldarica (http://lara.epfl.ch/w/eldarica)")
(set-logic HORN)
(declare-fun main_q2 (Int Int Int Int) Bool)
(declare-fun main_qf () Bool)
(declare-fun main_q0 (Int Int Int Int) Bool)
(declare-fun main_q1 (Int Int Int Int) Bool)
(declare-fun identity_q5 (Int Int Int Int Int Int Int Int) Bool)
(declare-fun identity_q6 (Int Int Int Int) Bool)
(declare-fun identity_q3 (Int Int Int Int Int Int Int Int) Bool)
(declare-fun identity_q0 (Int Int Int Int Int Int Int Int) Bool)
(declare-fun identity_q2 (Int Int Int Int Int Int Int Int) Bool)
(declare-fun identity_q1 (Int Int Int Int Int Int Int Int) Bool)
(declare-fun identity_q4 (Int Int Int Int Int Int Int Int) Bool)
(assert(forall((?A Int)(?B Int)(?C Int)(?D Int))(=>(and (main_q2 ?A ?B ?C ?D)(= ?D ?C)) main_qf)))
(assert(not (exists((?A Int)(?B Int)(?C Int)(?D Int))(and (main_q2 ?A ?B ?C ?D)(not (= ?D ?C))))))
(assert(forall((?A Int)(?B Int)(?C Int)(?D Int)(?E Int)(?F Int))(=>(and (main_q0 ?A ?B ?E ?F)(>= ?D 0)) (main_q1 ?A ?B ?C ?D))))
(assert(forall((?A Int)(?B Int)(?C Int)(?D Int))(=>(and (= ?A ?C) (= ?B ?D)) (main_q0 ?A ?B ?C ?D))))
(assert(forall((?A Int)(?B Int)(?C Int)(?D Int)(?E Int)(?F Int)(?G Int)(?H Int)(?I Int)(?J Int)(?K Int)(?L Int))(=>(and (identity_q5 ?A ?E ?B ?F ?G ?H ?I ?J)(and (= ?C (+ ?J ?H)) (and (and (= ?H ?K) (= ?I ?D)) (= ?J ?L)))) (identity_q6 ?A ?B ?C ?D))))
(assert(forall((?A Int)(?B Int)(?C Int)(?D Int)(?E Int)(?F Int)(?G Int)(?H Int)(?I Int)(?J Int)(?K Int)(?L Int))(=>(and (identity_q0 ?A ?B ?C ?D ?I ?J ?K ?L)(and (> ?K 1) (and (and (and (= ?I ?E) (= ?J ?F)) (= ?K ?G)) (= ?L ?H)))) (identity_q3 ?A ?B ?C ?D ?E ?F ?G ?H))))
(assert(forall((?A Int)(?B Int)(?C Int)(?D Int)(?E Int)(?F Int)(?G Int)(?H Int)(?I Int)(?J Int)(?K Int)(?L Int))(=>(and (identity_q2 ?A ?E ?B ?F ?G ?H ?I ?J)(and (= ?C 1) (and (and (= ?H ?K) (= ?I ?D)) (= ?J ?L)))) (identity_q6 ?A ?B ?C ?D))))
(assert(forall((?A Int)(?B Int)(?C Int)(?D Int)(?E Int)(?F Int)(?G Int)(?H Int)(?I Int)(?J Int)(?K Int)(?L Int))(=>(and (identity_q0 ?A ?B ?C ?D ?I ?J ?K ?L)(and (= ?K 1) (and (and (and (= ?I ?E) (= ?J ?F)) (= ?K ?G)) (= ?L ?H)))) (identity_q2 ?A ?B ?C ?D ?E ?F ?G ?H))))
(assert(forall((?A Int)(?B Int)(?C Int)(?D Int)(?E Int)(?F Int)(?G Int)(?H Int)(?I Int)(?J Int)(?K Int)(?L Int))(=>(and (identity_q1 ?A ?E ?B ?F ?G ?H ?I ?J)(and (= ?C 0) (and (and (= ?H ?K) (= ?I ?D)) (= ?J ?L)))) (identity_q6 ?A ?B ?C ?D))))
(assert(forall((?A Int)(?B Int)(?C Int)(?D Int)(?E Int)(?F Int)(?G Int)(?H Int)(?I Int)(?J Int)(?K Int)(?L Int))(=>(and (identity_q0 ?A ?B ?C ?D ?I ?J ?K ?L)(and (= ?K 0) (and (and (and (= ?I ?E) (= ?J ?F)) (= ?K ?G)) (= ?L ?H)))) (identity_q1 ?A ?B ?C ?D ?E ?F ?G ?H))))
(assert(forall((?A Int)(?B Int)(?C Int)(?D Int)(?E Int)(?F Int)(?G Int)(?H Int)(?I Int)(?J Int)(?K Int)(?L Int)(?M Int)(?N Int)(?O Int)(?P Int))(=>(and (and (and (and (identity_q3 ?A ?B ?C ?D ?I ?J ?K ?L)(= ?M (+ (div ?K 2) 1)))(identity_q6 ?N ?M ?O ?P))(= ?O ?H))(and (and (= ?I ?E) (= ?J ?F)) (= ?K ?G))) (identity_q4 ?A ?B ?C ?D ?E ?F ?G ?H))))
(assert(forall((?A Int)(?B Int)(?C Int)(?D Int)(?E Int)(?F Int)(?G Int)(?H Int)(?I Int)(?J Int)(?K Int)(?L Int)(?M Int)(?N Int)(?O Int)(?P Int))(=>(and (and (identity_q3 ?I ?J ?K ?L ?M ?N ?O ?P)(= ?C (+ (div ?O 2) 1)))(and (= ?A ?E) (= ?C ?G))) (identity_q0 ?A ?B ?C ?D ?E ?F ?G ?H))))
(assert(forall((?A Int)(?B Int)(?C Int)(?D Int)(?E Int)(?F Int)(?G Int)(?H Int)(?I Int)(?J Int)(?K Int)(?L Int)(?M Int)(?N Int)(?O Int)(?P Int))(=>(and (and (and (and (identity_q4 ?A ?B ?C ?D ?I ?J ?K ?L)(= ?M (div ?K 2)))(identity_q6 ?N ?M ?O ?P))(= ?O ?F))(and (and (= ?I ?E) (= ?K ?G)) (= ?L ?H))) (identity_q5 ?A ?B ?C ?D ?E ?F ?G ?H))))
(assert(forall((?A Int)(?B Int)(?C Int)(?D Int)(?E Int)(?F Int)(?G Int)(?H Int)(?I Int)(?J Int)(?K Int)(?L Int)(?M Int)(?N Int)(?O Int)(?P Int))(=>(and (and (identity_q4 ?I ?J ?K ?L ?M ?N ?O ?P)(= ?C (div ?O 2)))(and (= ?A ?E) (= ?C ?G))) (identity_q0 ?A ?B ?C ?D ?E ?F ?G ?H))))
(assert(forall((?A Int)(?B Int)(?C Int)(?D Int)(?E Int)(?F Int)(?G Int)(?H Int)(?I Int)(?J Int))(=>(and (and (and (and (main_q1 ?A ?B ?E ?F)(= ?G ?F))(identity_q6 ?H ?G ?I ?J))(= ?I ?C))(= ?F ?D)) (main_q2 ?A ?B ?C ?D))))
(assert(forall((?A Int)(?B Int)(?C Int)(?D Int)(?E Int)(?F Int)(?G Int)(?H Int)(?I Int)(?J Int)(?K Int)(?L Int))(=>(and (and (main_q1 ?I ?J ?K ?L)(= ?C ?L))(and (= ?A ?E) (= ?C ?G))) (identity_q0 ?A ?B ?C ?D ?E ?F ?G ?H))))
(check-sat)
